g3 0 1 0	# problem d7n5R0R6d005d05
 5 5 1 0 0	# vars, constraints, objectives, ranges, eqns
 4 1	# nonlinear constraints, objectives
 0 0	# network constraints: nonlinear, linear
 5 5 5	# nonlinear vars in constraints, objectives, both
 0 0 0 1	# linear network variables; functions; arith, flags
 0 0 0 0 0	# discrete variables: binary, integer, nonlinear (b,c,o)
 25 5	# nonzeros in Jacobian, gradients
 0 0	# max name lengths: constraints, variables
 0 0 0 0 0	# common exprs: b,c,o,c1,o1
b
0 0.08 2.71
0 0.87 2.84
0 0.42 2.2
0 0.06 2.15
0 0.53 2.78
r
2 9.948
2 20.049
2 58.679
2 201.781
2 29.222
C0
o2
o2
n2.91
v3
v4
C1
o54
4
o16
o2
o2
n6.41
v3
v4
o2
o2
o2
n1.93
v0
v0
v0
o16
o2
o2
o2
n6.89
v0
v2
v3
o2
o2
o2
n7.22
v2
v2
v2
C2
o54
7
o2
o2
n2.6
v3
v4
o2
o2
o2
n0.44
v0
v0
v0
o16
o2
o2
o2
n1.92
v0
v2
v3
o2
o2
o2
n2.56
v2
v2
v2
o16
o2
o2
o2
o2
n4.79
v0
v0
v0
v3
o2
o2
o2
o2
n7.45
v0
v3
v3
v3
o2
o2
o2
o2
n5.94
v0
v3
v4
v4
C3
o54
14
o2
o2
n4.04
v3
v4
o2
o2
o2
n2.51
v0
v0
v0
o16
o2
o2
o2
n3.1
v0
v2
v3
o2
o2
o2
n0.18
v2
v2
v2
o2
o2
o2
o2
n3.88
v0
v0
v0
v3
o16
o2
o2
o2
o2
n5.17
v0
v3
v3
v3
o2
o2
o2
o2
n3.54
v0
v3
v4
v4
o2
o2
o2
o2
o2
n3.67
v0
v0
v1
v2
v3
o2
o2
o2
o2
o2
n3.68
v0
v1
v1
v1
v3
o2
o2
o2
o2
o2
n3.32
v0
v1
v2
v2
v4
o2
o2
o2
o2
o2
n1.81
v1
v2
v3
v4
v4
o2
o2
o2
o2
o2
n8.8
v2
v2
v3
v3
v3
o2
o2
o2
o2
o2
n3.51
v2
v3
v3
v3
v4
o2
o2
o2
o2
o2
n3.75
v2
v4
v4
v4
v4
C4
n0
O0 0
o54
39
o2
o2
n0.79
v3
v4
o2
o2
o2
n1.92
v0
v0
v0
o2
o2
o2
n2.85
v0
v2
v3
o2
o2
o2
n6.7
v2
v2
v2
o2
o2
o2
o2
n1.22
v0
v0
v0
v3
o2
o2
o2
o2
n4.98
v0
v3
v3
v3
o2
o2
o2
o2
n7.8
v0
v3
v4
v4
o2
o2
o2
o2
o2
n4.73
v0
v0
v1
v2
v3
o2
o2
o2
o2
o2
n1.98
v0
v1
v1
v1
v3
o2
o2
o2
o2
o2
n7.6
v0
v1
v2
v2
v4
o2
o2
o2
o2
o2
n3.65
v1
v2
v3
v4
v4
o16
o2
o2
o2
o2
o2
n8.82
v2
v2
v3
v3
v3
o2
o2
o2
o2
o2
n5.11
v2
v3
v3
v3
v4
o2
o2
o2
o2
o2
n6.75
v2
v4
v4
v4
v4
o2
o2
o2
o2
o2
o2
n9.67
v0
v0
v2
v2
v4
v4
o2
o2
o2
o2
o2
o2
n2.42
v0
v1
v1
v1
v3
v3
o2
o2
o2
o2
o2
o2
n9.6
v0
v1
v1
v3
v4
v4
o2
o2
o2
o2
o2
o2
n4.26
v0
v1
v2
v3
v4
v4
o2
o2
o2
o2
o2
o2
n1.51
v0
v1
v3
v3
v3
v3
o16
o2
o2
o2
o2
o2
o2
n8.42
v1
v1
v1
v2
v2
v2
o2
o2
o2
o2
o2
o2
n1.7
v1
v1
v1
v2
v4
v4
o2
o2
o2
o2
o2
o2
n10
v1
v1
v3
v3
v3
v4
o2
o2
o2
o2
o2
o2
n9.57
v1
v2
v2
v2
v2
v4
o2
o2
o2
o2
o2
o2
o2
n5.4
v0
v0
v0
v0
v0
v1
v4
o2
o2
o2
o2
o2
o2
o2
n1.57
v0
v0
v0
v0
v1
v2
v4
o2
o2
o2
o2
o2
o2
o2
n1.27
v0
v0
v0
v1
v2
v3
v3
o2
o2
o2
o2
o2
o2
o2
n3.82
v0
v0
v0
v1
v4
v4
v4
o2
o2
o2
o2
o2
o2
o2
n0.19
v0
v0
v0
v3
v3
v3
v3
o2
o2
o2
o2
o2
o2
o2
n6.07
v0
v0
v1
v1
v1
v1
v1
o2
o2
o2
o2
o2
o2
o2
n8.51
v0
v0
v1
v1
v1
v2
v4
o2
o2
o2
o2
o2
o2
o2
n4.71
v0
v0
v1
v2
v2
v3
v4
o2
o2
o2
o2
o2
o2
o2
n6.65
v0
v0
v2
v2
v2
v3
v3
o16
o2
o2
o2
o2
o2
o2
o2
n7.92
v0
v3
v3
v3
v3
v3
v3
o2
o2
o2
o2
o2
o2
o2
n7.15
v0
v3
v3
v3
v3
v4
v4
o2
o2
o2
o2
o2
o2
o2
n0.43
v1
v1
v1
v1
v1
v3
v3
o2
o2
o2
o2
o2
o2
o2
n0.74
v1
v1
v1
v1
v3
v3
v4
o2
o2
o2
o2
o2
o2
o2
n1.03
v1
v1
v1
v2
v3
v3
v3
o2
o2
o2
o2
o2
o2
o2
n5.85
v1
v1
v2
v3
v4
v4
v4
o2
o2
o2
o2
o2
o2
o2
n0.37
v2
v4
v4
v4
v4
v4
v4
k4
5
10
15
20
J0 5
0 8.42
1 -6.62
2 1.13
3 0.17
4 2.11
J1 5
0 5.57
1 2.11
2 0.32
3 7.74
4 2.15
J2 5
0 7.31
1 0.33
2 9.61
3 0.41
4 1.37
J3 5
0 -3.52
1 3.56
2 6.62
3 0.44
4 3.1
J4 5
0 1.76
1 2.08
2 0.83
3 4.86
4 9.94
G0 5
0 8.15
1 1.45
2 9.42
3 3.58
4 0.67
